3 6 7 13 4 1 12 10 8 14 0 9 5 2 11
2 12 1 13 3 4 8 14 0 10 7 5 9 11 6
8 14 3 0 10 5 9 13 2 11 6 4 7 1 12
5 13 11 4 14 2 9 8 10 3 6 7 1 0 12
13 5 2 14 1 8 4 3 11 6 7 12 9 0 10
14 11 2 5 8 10 0 4 9 7 13 3 1 6 12
8 12 5 10 7 11 2 13 0 14 6 9 1 4 3
9 7 12 3 6 2 10 13 1 8 14 4 0 5 11
0 4 5 1 11 7 6 2 14 13 8 9 3 10 12
8 11 7 1 14 13 12 4 6 9 10 0 5 2 3
12 4 5 13 6 0 1 7 9 8 11 10 14 2 3
3 14 4 13 5 9 8 0 7 12 6 1 10 11 2
10 8 4 1 2 0 7 14 12 13 9 6 3 11 5
6 2 0 14 1 4 12 3 10 7 8 9 5 13 11
10 2 9 13 5 0 6 7 1 14 11 4 12 3 8